nK = 579;
nT = 4;
nI = 7;
L = 35;
TT = 151;
np = 1;
nc = 3;
b = [33, 39, 36, 68, 41, 68, 50];
d = [69, 142, 59, 132, 68, 143, 108];
m = [1.6, 1.5, 2.5, 2.1, 1.4, 2.2, 2];
pt = [0.33, 0.24, 0.27, 0.35];
st = [17.16, 12, 12.69, 14.35];
arc = {<1, 0, 1, 1, 0, 0, 0, [1, 1, 1, 1]>, <2, 1, 2, 1, 0, 0, 0, [1, 1, 1, 1]>, <3, 2, 3, 1, 0, 0, 0, [1, 1, 1, 1]>, <4, 3, 4, 1, 0, 0, 0, [1, 1, 1, 1]>, <5, 4, 5, 1, 0, 0, 0, [1, 1, 1, 1]>, <6, 5, 6, 1, 0, 0, 0, [1, 1, 1, 1]>, <7, 6, 7, 1, 0, 0, 0, [1, 1, 1, 1]>, <8, 7, 8, 1, 0, 0, 0, [1, 1, 1, 1]>, <9, 8, 9, 1, 0, 0, 0, [1, 1, 1, 1]>, <10, 9, 10, 1, 0, 0, 0, [1, 1, 1, 1]>, <11, 10, 11, 1, 0, 0, 0, [1, 1, 1, 1]>, <12, 11, 12, 1, 0, 0, 0, [1, 1, 1, 1]>, <13, 12, 13, 1, 0, 0, 0, [1, 1, 1, 1]>, <14, 13, 14, 1, 0, 0, 0, [1, 1, 1, 1]>, <15, 14, 15, 1, 0, 0, 0, [1, 1, 1, 1]>, <16, 15, 16, 1, 0, 0, 0, [1, 1, 1, 1]>, <17, 16, 17, 1, 0, 0, 0, [1, 1, 1, 1]>, <18, 17, 18, 1, 0, 0, 0, [1, 1, 1, 1]>, <19, 18, 19, 1, 0, 0, 0, [1, 1, 1, 1]>, <20, 19, 20, 1, 0, 0, 0, [1, 1, 1, 1]>, <21, 20, 21, 1, 0, 0, 0, [1, 1, 1, 1]>, <22, 21, 22, 1, 0, 0, 0, [1, 1, 1, 1]>, <23, 22, 23, 1, 0, 0, 0, [1, 1, 1, 1]>, <24, 23, 24, 1, 0, 0, 0, [1, 1, 1, 1]>, <25, 24, 25, 1, 0, 0, 0, [1, 1, 1, 1]>, <26, 25, 26, 1, 0, 0, 0, [1, 1, 1, 1]>, <27, 26, 27, 1, 0, 0, 0, [1, 1, 1, 1]>, <28, 27, 28, 1, 0, 0, 0, [1, 1, 1, 1]>, <29, 28, 29, 1, 0, 0, 0, [1, 1, 1, 1]>, <30, 29, 30, 1, 0, 0, 0, [1, 1, 1, 1]>, <31, 30, 31, 1, 0, 0, 0, [1, 1, 1, 1]>, <32, 31, 32, 1, 0, 0, 0, [1, 1, 1, 1]>, <33, 32, 33, 1, 0, 0, 0, [1, 1, 1, 1]>, <34, 33, 34, 1, 0, 0, 0, [1, 1, 1, 1]>, <35, 34, 35, 1, 0, 0, 0, [1, 1, 1, 1]>, <36, 5, 17, 12, 1, 0, 0, [0, 1, 1, 0]>, <37, 6, 18, 12, 1, 0, 0, [0, 1, 1, 0]>, <38, 14, 26, 12, 1, 0, 0, [0, 1, 1, 0]>, <39, 15, 27, 12, 1, 0, 0, [0, 1, 1, 0]>, <40, 19, 31, 12, 1, 0, 0, [0, 1, 1, 0]>, <41, 20, 32, 12, 1, 0, 0, [0, 1, 1, 0]>, <42, 21, 33, 12, 1, 0, 0, [0, 1, 1, 0]>, <43, 22, 34, 12, 1, 0, 0, [0, 1, 1, 0]>, <44, 23, 35, 12, 1, 0, 0, [0, 1, 1, 0]>, <45, 4, 17, 13, 2, 0, 1, [0, 1, 1, 0]>, <46, 5, 18, 13, 2, 0, 1, [0, 1, 1, 0]>, <47, 6, 19, 13, 2, 0, 1, [0, 1, 1, 0]>, <48, 13, 26, 13, 2, 0, 1, [0, 1, 1, 0]>, <49, 14, 27, 13, 2, 0, 1, [0, 1, 1, 0]>, <50, 15, 28, 13, 2, 0, 1, [0, 1, 1, 0]>, <51, 18, 31, 13, 2, 0, 1, [0, 1, 1, 0]>, <52, 19, 32, 13, 2, 0, 1, [0, 1, 1, 0]>, <53, 20, 33, 13, 2, 0, 1, [0, 1, 1, 0]>, <54, 21, 34, 13, 2, 0, 1, [0, 1, 1, 0]>, <55, 22, 35, 13, 2, 0, 1, [0, 1, 1, 0]>, <56, 2, 17, 15, 3, 1, 0, [0, 1, 1, 0]>, <57, 3, 18, 15, 3, 1, 0, [0, 1, 1, 0]>, <58, 4, 19, 15, 3, 1, 0, [0, 1, 1, 0]>, <59, 5, 20, 15, 3, 1, 0, [0, 1, 1, 0]>, <60, 6, 21, 15, 3, 1, 0, [0, 1, 1, 0]>, <61, 11, 26, 15, 3, 1, 0, [0, 1, 1, 0]>, <62, 12, 27, 15, 3, 1, 0, [0, 1, 1, 0]>, <63, 13, 28, 15, 3, 1, 0, [0, 1, 1, 0]>, <64, 14, 29, 15, 3, 1, 0, [0, 1, 1, 0]>, <65, 15, 30, 15, 3, 1, 0, [0, 1, 1, 0]>, <66, 16, 31, 15, 3, 1, 0, [0, 1, 1, 0]>, <67, 17, 32, 15, 3, 1, 0, [0, 1, 1, 0]>, <68, 18, 33, 15, 3, 1, 0, [0, 1, 1, 0]>, <69, 19, 34, 15, 3, 1, 0, [0, 1, 1, 0]>, <70, 20, 35, 15, 3, 1, 0, [0, 1, 1, 0]>, <71, 5, 16, 11, 4, 0, 1, [0, 0, 1, 1]>, <72, 6, 17, 11, 4, 0, 1, [0, 0, 1, 1]>, <73, 14, 25, 11, 4, 0, 1, [0, 0, 1, 1]>, <74, 15, 26, 11, 4, 0, 1, [0, 0, 1, 1]>, <75, 20, 31, 11, 4, 0, 1, [0, 0, 1, 1]>, <76, 21, 32, 11, 4, 0, 1, [0, 0, 1, 1]>, <77, 22, 33, 11, 4, 0, 1, [0, 0, 1, 1]>, <78, 23, 34, 11, 4, 0, 1, [0, 0, 1, 1]>, <79, 24, 35, 11, 4, 0, 1, [0, 0, 1, 1]>, <80, 4, 17, 13, 5, 0, 1, [0, 1, 1, 0]>, <81, 5, 18, 13, 5, 0, 1, [0, 1, 1, 0]>, <82, 6, 19, 13, 5, 0, 1, [0, 1, 1, 0]>, <83, 13, 26, 13, 5, 0, 1, [0, 1, 1, 0]>, <84, 14, 27, 13, 5, 0, 1, [0, 1, 1, 0]>, <85, 15, 28, 13, 5, 0, 1, [0, 1, 1, 0]>, <86, 18, 31, 13, 5, 0, 1, [0, 1, 1, 0]>, <87, 19, 32, 13, 5, 0, 1, [0, 1, 1, 0]>, <88, 20, 33, 13, 5, 0, 1, [0, 1, 1, 0]>, <89, 21, 34, 13, 5, 0, 1, [0, 1, 1, 0]>, <90, 22, 35, 13, 5, 0, 1, [0, 1, 1, 0]>, <91, 5, 15, 10, 6, 0, 1, [0, 1, 1, 0]>, <92, 6, 16, 10, 6, 0, 1, [0, 1, 1, 0]>, <93, 14, 24, 10, 6, 0, 1, [0, 1, 1, 0]>, <94, 15, 25, 10, 6, 0, 1, [0, 1, 1, 0]>, <95, 21, 31, 10, 6, 0, 1, [0, 1, 1, 0]>, <96, 22, 32, 10, 6, 0, 1, [0, 1, 1, 0]>, <97, 23, 33, 10, 6, 0, 1, [0, 1, 1, 0]>, <98, 24, 34, 10, 6, 0, 1, [0, 1, 1, 0]>, <99, 3, 17, 14, 7, 0, 0, [1, 1, 0, 0]>, <100, 4, 18, 14, 7, 0, 0, [1, 1, 0, 0]>, <101, 5, 19, 14, 7, 0, 0, [1, 1, 0, 0]>, <102, 6, 20, 14, 7, 0, 0, [1, 1, 0, 0]>, <103, 12, 26, 14, 7, 0, 0, [1, 1, 0, 0]>, <104, 13, 27, 14, 7, 0, 0, [1, 1, 0, 0]>, <105, 14, 28, 14, 7, 0, 0, [1, 1, 0, 0]>, <106, 15, 29, 14, 7, 0, 0, [1, 1, 0, 0]>, <107, 17, 31, 14, 7, 0, 0, [1, 1, 0, 0]>, <108, 18, 32, 14, 7, 0, 0, [1, 1, 0, 0]>, <109, 19, 33, 14, 7, 0, 0, [1, 1, 0, 0]>, <110, 20, 34, 14, 7, 0, 0, [1, 1, 0, 0]>, <111, 21, 35, 14, 7, 0, 0, [1, 1, 0, 0]>};
